c Standarized MaxSat Instance
c{
c "sha1sum": "8973500b0baa140a48b35e522b040011d5214494",
c "nvars": 42,
c "ncls": 1690,
c "nhards": 0,
c "nhard_len_stats":
c    { "min": 0, "max": 0, "ave": 0.00,
c      "stddev": 0.00 },
c "nsofts": 1690,
c "nsoft_len_stats":
c    { "min": 2, "max": 2, "ave": 2.00,
c      "stddev": 0.00 },
c "nsoft_wts": 10,
c "soft_wt_stats":
c    { "min": 1, "max": 10, "ave": 5.59,
c      "stddev": 2.84 }
c}
c------------------------------------------------------------
c FILE:  MANN_a27.clq.b
c
c By: Carlo Mannino (mannino@iasi.rm.cnr.it)
c
c DESCRIPTION: Clique formulation of the Steiner Triple Problem,
c              translated from the set covering formulation
c
c Graph Size: 378    Clique Size: 126
c
c Clique Elements are:
c   2    4    6    8   10   11   13   14   19   30   32   36   39   40   45
c  48   49   54   57   59   63   66   69   70   75   77   81   83   87   90
c  93   96   98  101  103  106  110  113  115  118  121  124  128  130  133
c 138  141  144  147  150  153  156  159  162  165  168  171  174  177  180
c 183  186  189  192  195  198  201  204  207  210  213  216  219  222  225
c 228  231  234  237  240  243  245  249  252  254  257  261  264  267  270
c 272  276  279  282  285  288  291  294  297  300  303  306  309  312  315
c 316  321  324  325  329  333  336  339  342  343  348  351  352  357  360
c 363  366  369  372  375  378 *
c
c  EDGE DENSITY: 0.9901
p wcnf 42 1690 9441
9 1 2 0
9 -1 -2 0
4 1 3 0
4 -1 -3 0
8 1 6 0
8 -1 -6 0
8 1 8 0
8 -1 -8 0
10 1 9 0
10 -1 -9 0
2 1 10 0
2 -1 -10 0
4 1 11 0
4 -1 -11 0
8 1 12 0
8 -1 -12 0
3 1 13 0
3 -1 -13 0
6 1 14 0
6 -1 -14 0
5 1 15 0
5 -1 -15 0
7 1 18 0
7 -1 -18 0
4 1 22 0
4 -1 -22 0
6 1 24 0
6 -1 -24 0
10 1 25 0
10 -1 -25 0
10 1 26 0
10 -1 -26 0
7 1 27 0
7 -1 -27 0
8 1 28 0
8 -1 -28 0
2 1 29 0
2 -1 -29 0
7 1 30 0
7 -1 -30 0
1 1 31 0
1 -1 -31 0
3 1 32 0
3 -1 -32 0
2 1 33 0
2 -1 -33 0
9 1 34 0
9 -1 -34 0
2 1 35 0
2 -1 -35 0
5 1 36 0
5 -1 -36 0
2 1 37 0
2 -1 -37 0
2 1 38 0
2 -1 -38 0
10 1 39 0
10 -1 -39 0
3 1 41 0
3 -1 -41 0
6 1 42 0
6 -1 -42 0
9 2 3 0
9 -2 -3 0
7 2 4 0
7 -2 -4 0
3 2 5 0
3 -2 -5 0
7 2 6 0
7 -2 -6 0
6 2 7 0
6 -2 -7 0
5 2 10 0
5 -2 -10 0
10 2 12 0
10 -2 -12 0
3 2 13 0
3 -2 -13 0
8 2 14 0
8 -2 -14 0
6 2 15 0
6 -2 -15 0
8 2 16 0
8 -2 -16 0
5 2 17 0
5 -2 -17 0
9 2 18 0
9 -2 -18 0
3 2 19 0
3 -2 -19 0
4 2 20 0
4 -2 -20 0
9 2 21 0
9 -2 -21 0
10 2 22 0
10 -2 -22 0
1 2 23 0
1 -2 -23 0
10 2 24 0
10 -2 -24 0
6 2 25 0
6 -2 -25 0
1 2 26 0
1 -2 -26 0
2 2 27 0
2 -2 -27 0
7 2 28 0
7 -2 -28 0
9 2 29 0
9 -2 -29 0
4 2 30 0
4 -2 -30 0
1 2 31 0
1 -2 -31 0
1 2 32 0
1 -2 -32 0
5 2 33 0
5 -2 -33 0
1 2 34 0
1 -2 -34 0
3 2 35 0
3 -2 -35 0
10 2 36 0
10 -2 -36 0
10 2 37 0
10 -2 -37 0
9 2 38 0
9 -2 -38 0
3 2 39 0
3 -2 -39 0
6 2 40 0
6 -2 -40 0
4 2 41 0
4 -2 -41 0
8 2 42 0
8 -2 -42 0
6 3 4 0
6 -3 -4 0
7 3 5 0
7 -3 -5 0
6 3 6 0
6 -3 -6 0
1 3 7 0
1 -3 -7 0
5 3 8 0
5 -3 -8 0
10 3 9 0
10 -3 -9 0
10 3 10 0
10 -3 -10 0
8 3 11 0
8 -3 -11 0
3 3 14 0
3 -3 -14 0
8 3 16 0
8 -3 -16 0
7 3 17 0
7 -3 -17 0
4 3 18 0
4 -3 -18 0
7 3 19 0
7 -3 -19 0
2 3 20 0
2 -3 -20 0
5 3 21 0
5 -3 -21 0
9 3 22 0
9 -3 -22 0
9 3 23 0
9 -3 -23 0
4 3 24 0
4 -3 -24 0
3 3 25 0
3 -3 -25 0
9 3 26 0
9 -3 -26 0
4 3 27 0
4 -3 -27 0
7 3 28 0
7 -3 -28 0
10 3 29 0
10 -3 -29 0
6 3 30 0
6 -3 -30 0
7 3 31 0
7 -3 -31 0
9 3 32 0
9 -3 -32 0
5 3 33 0
5 -3 -33 0
10 3 34 0
10 -3 -34 0
4 3 35 0
4 -3 -35 0
9 3 36 0
9 -3 -36 0
7 3 37 0
7 -3 -37 0
10 3 38 0
10 -3 -38 0
5 3 39 0
5 -3 -39 0
3 3 40 0
3 -3 -40 0
10 3 41 0
10 -3 -41 0
10 3 42 0
10 -3 -42 0
2 4 5 0
2 -4 -5 0
9 4 6 0
9 -4 -6 0
7 4 7 0
7 -4 -7 0
5 4 8 0
5 -4 -8 0
7 4 9 0
7 -4 -9 0
3 4 10 0
3 -4 -10 0
8 4 11 0
8 -4 -11 0
4 4 12 0
4 -4 -12 0
5 4 13 0
5 -4 -13 0
3 4 14 0
3 -4 -14 0
2 4 15 0
2 -4 -15 0
3 4 16 0
3 -4 -16 0
6 4 17 0
6 -4 -17 0
5 4 18 0
5 -4 -18 0
2 4 19 0
2 -4 -19 0
10 4 20 0
10 -4 -20 0
2 4 21 0
2 -4 -21 0
2 4 22 0
2 -4 -22 0
5 4 23 0
5 -4 -23 0
8 4 24 0
8 -4 -24 0
10 4 25 0
10 -4 -25 0
10 4 26 0
10 -4 -26 0
7 4 27 0
7 -4 -27 0
4 4 28 0
4 -4 -28 0
8 4 29 0
8 -4 -29 0
4 4 30 0
4 -4 -30 0
3 4 31 0
3 -4 -31 0
3 4 32 0
3 -4 -32 0
6 4 33 0
6 -4 -33 0
3 4 34 0
3 -4 -34 0
2 4 35 0
2 -4 -35 0
8 4 36 0
8 -4 -36 0
2 4 37 0
2 -4 -37 0
8 4 38 0
8 -4 -38 0
2 4 39 0
2 -4 -39 0
8 4 40 0
8 -4 -40 0
1 4 41 0
1 -4 -41 0
10 4 42 0
10 -4 -42 0
1 5 6 0
1 -5 -6 0
6 5 7 0
6 -5 -7 0
2 5 8 0
2 -5 -8 0
3 5 9 0
3 -5 -9 0
8 5 10 0
8 -5 -10 0
8 5 11 0
8 -5 -11 0
7 5 12 0
7 -5 -12 0
10 5 13 0
10 -5 -13 0
7 5 14 0
7 -5 -14 0
8 5 15 0
8 -5 -15 0
1 5 16 0
1 -5 -16 0
2 5 17 0
2 -5 -17 0
6 5 18 0
6 -5 -18 0
1 5 19 0
1 -5 -19 0
1 5 20 0
1 -5 -20 0
3 5 21 0
3 -5 -21 0
5 5 22 0
5 -5 -22 0
9 5 23 0
9 -5 -23 0
6 5 24 0
6 -5 -24 0
8 5 25 0
8 -5 -25 0
1 5 26 0
1 -5 -26 0
2 5 27 0
2 -5 -27 0
10 5 28 0
10 -5 -28 0
3 5 29 0
3 -5 -29 0
9 5 30 0
9 -5 -30 0
2 5 31 0
2 -5 -31 0
10 5 32 0
10 -5 -32 0
1 5 33 0
1 -5 -33 0
9 5 34 0
9 -5 -34 0
1 5 35 0
1 -5 -35 0
1 5 36 0
1 -5 -36 0
10 5 37 0
10 -5 -37 0
6 5 38 0
6 -5 -38 0
2 5 39 0
2 -5 -39 0
2 5 40 0
2 -5 -40 0
4 5 41 0
4 -5 -41 0
10 5 42 0
10 -5 -42 0
9 6 7 0
9 -6 -7 0
4 6 8 0
4 -6 -8 0
6 6 9 0
6 -6 -9 0
6 6 10 0
6 -6 -10 0
5 6 11 0
5 -6 -11 0
7 6 12 0
7 -6 -12 0
1 6 13 0
1 -6 -13 0
6 6 14 0
6 -6 -14 0
8 6 15 0
8 -6 -15 0
4 6 16 0
4 -6 -16 0
10 6 17 0
10 -6 -17 0
6 6 18 0
6 -6 -18 0
9 6 19 0
9 -6 -19 0
8 6 20 0
8 -6 -20 0
7 6 21 0
7 -6 -21 0
1 6 22 0
1 -6 -22 0
8 6 23 0
8 -6 -23 0
9 6 24 0
9 -6 -24 0
10 6 25 0
10 -6 -25 0
9 6 26 0
9 -6 -26 0
9 6 27 0
9 -6 -27 0
10 6 28 0
10 -6 -28 0
8 6 29 0
8 -6 -29 0
10 6 30 0
10 -6 -30 0
10 6 31 0
10 -6 -31 0
7 6 32 0
7 -6 -32 0
5 6 33 0
5 -6 -33 0
2 6 34 0
2 -6 -34 0
9 6 35 0
9 -6 -35 0
9 6 36 0
9 -6 -36 0
1 6 37 0
1 -6 -37 0
7 6 38 0
7 -6 -38 0
3 6 39 0
3 -6 -39 0
7 6 40 0
7 -6 -40 0
3 6 41 0
3 -6 -41 0
8 6 42 0
8 -6 -42 0
4 7 8 0
4 -7 -8 0
4 7 9 0
4 -7 -9 0
3 7 10 0
3 -7 -10 0
1 7 11 0
1 -7 -11 0
7 7 12 0
7 -7 -12 0
3 7 13 0
3 -7 -13 0
7 7 14 0
7 -7 -14 0
6 7 15 0
6 -7 -15 0
10 7 16 0
10 -7 -16 0
3 7 17 0
3 -7 -17 0
6 7 18 0
6 -7 -18 0
8 7 19 0
8 -7 -19 0
2 7 20 0
2 -7 -20 0
5 7 21 0
5 -7 -21 0
6 7 22 0
6 -7 -22 0
10 7 23 0
10 -7 -23 0
5 7 24 0
5 -7 -24 0
4 7 25 0
4 -7 -25 0
9 7 26 0
9 -7 -26 0
5 7 27 0
5 -7 -27 0
1 7 28 0
1 -7 -28 0
4 7 29 0
4 -7 -29 0
6 7 30 0
6 -7 -30 0
9 7 31 0
9 -7 -31 0
3 7 32 0
3 -7 -32 0
7 7 33 0
7 -7 -33 0
5 7 34 0
5 -7 -34 0
5 7 35 0
5 -7 -35 0
4 7 36 0
4 -7 -36 0
8 7 37 0
8 -7 -37 0
2 7 38 0
2 -7 -38 0
7 7 39 0
7 -7 -39 0
1 7 40 0
1 -7 -40 0
5 7 41 0
5 -7 -41 0
7 7 42 0
7 -7 -42 0
7 8 9 0
7 -8 -9 0
7 8 10 0
7 -8 -10 0
4 8 11 0
4 -8 -11 0
2 8 12 0
2 -8 -12 0
7 8 13 0
7 -8 -13 0
7 8 14 0
7 -8 -14 0
8 8 15 0
8 -8 -15 0
4 8 16 0
4 -8 -16 0
8 8 17 0
8 -8 -17 0
3 8 18 0
3 -8 -18 0
10 8 19 0
10 -8 -19 0
7 8 20 0
7 -8 -20 0
7 8 21 0
7 -8 -21 0
3 8 22 0
3 -8 -22 0
6 8 23 0
6 -8 -23 0
1 8 24 0
1 -8 -24 0
3 8 25 0
3 -8 -25 0
9 8 26 0
9 -8 -26 0
7 8 27 0
7 -8 -27 0
1 8 28 0
1 -8 -28 0
2 8 29 0
2 -8 -29 0
4 8 30 0
4 -8 -30 0
6 8 31 0
6 -8 -31 0
6 8 32 0
6 -8 -32 0
7 8 33 0
7 -8 -33 0
3 8 34 0
3 -8 -34 0
8 8 35 0
8 -8 -35 0
3 8 36 0
3 -8 -36 0
4 8 37 0
4 -8 -37 0
2 8 38 0
2 -8 -38 0
10 8 39 0
10 -8 -39 0
1 8 40 0
1 -8 -40 0
9 8 41 0
9 -8 -41 0
4 8 42 0
4 -8 -42 0
2 9 10 0
2 -9 -10 0
5 9 11 0
5 -9 -11 0
10 9 12 0
10 -9 -12 0
10 9 13 0
10 -9 -13 0
8 9 14 0
8 -9 -14 0
7 9 15 0
7 -9 -15 0
2 9 16 0
2 -9 -16 0
7 9 17 0
7 -9 -17 0
4 9 18 0
4 -9 -18 0
8 9 19 0
8 -9 -19 0
10 9 20 0
10 -9 -20 0
10 9 21 0
10 -9 -21 0
9 9 22 0
9 -9 -22 0
3 9 23 0
3 -9 -23 0
8 9 24 0
8 -9 -24 0
6 9 25 0
6 -9 -25 0
3 9 26 0
3 -9 -26 0
10 9 27 0
10 -9 -27 0
10 9 28 0
10 -9 -28 0
9 9 29 0
9 -9 -29 0
5 9 30 0
5 -9 -30 0
6 9 31 0
6 -9 -31 0
2 9 32 0
2 -9 -32 0
3 9 33 0
3 -9 -33 0
9 9 34 0
9 -9 -34 0
5 9 35 0
5 -9 -35 0
5 9 36 0
5 -9 -36 0
9 9 37 0
9 -9 -37 0
5 9 38 0
5 -9 -38 0
3 9 39 0
3 -9 -39 0
2 9 40 0
2 -9 -40 0
7 9 41 0
7 -9 -41 0
8 9 42 0
8 -9 -42 0
2 10 11 0
2 -10 -11 0
7 10 12 0
7 -10 -12 0
5 10 13 0
5 -10 -13 0
9 10 14 0
9 -10 -14 0
8 10 15 0
8 -10 -15 0
2 10 16 0
2 -10 -16 0
3 10 17 0
3 -10 -17 0
5 10 18 0
5 -10 -18 0
2 10 19 0
2 -10 -19 0
2 10 20 0
2 -10 -20 0
4 10 21 0
4 -10 -21 0
4 10 22 0
4 -10 -22 0
10 10 23 0
10 -10 -23 0
10 10 24 0
10 -10 -24 0
7 10 25 0
7 -10 -25 0
9 10 26 0
9 -10 -26 0
9 10 27 0
9 -10 -27 0
5 10 28 0
5 -10 -28 0
4 10 29 0
4 -10 -29 0
4 10 30 0
4 -10 -30 0
7 10 31 0
7 -10 -31 0
7 10 32 0
7 -10 -32 0
3 10 33 0
3 -10 -33 0
2 10 34 0
2 -10 -34 0
1 10 35 0
1 -10 -35 0
2 10 36 0
2 -10 -36 0
7 10 37 0
7 -10 -37 0
4 10 38 0
4 -10 -38 0
3 10 39 0
3 -10 -39 0
4 10 40 0
4 -10 -40 0
1 10 41 0
1 -10 -41 0
5 10 42 0
5 -10 -42 0
10 11 12 0
10 -11 -12 0
6 11 13 0
6 -11 -13 0
3 11 14 0
3 -11 -14 0
7 11 15 0
7 -11 -15 0
8 11 16 0
8 -11 -16 0
5 11 17 0
5 -11 -17 0
2 11 18 0
2 -11 -18 0
9 11 19 0
9 -11 -19 0
7 11 20 0
7 -11 -20 0
6 11 21 0
6 -11 -21 0
3 11 22 0
3 -11 -22 0
6 11 23 0
6 -11 -23 0
5 11 24 0
5 -11 -24 0
9 11 25 0
9 -11 -25 0
4 11 26 0
4 -11 -26 0
3 11 27 0
3 -11 -27 0
4 11 28 0
4 -11 -28 0
8 11 29 0
8 -11 -29 0
7 11 30 0
7 -11 -30 0
10 11 31 0
10 -11 -31 0
4 11 32 0
4 -11 -32 0
9 11 33 0
9 -11 -33 0
2 11 34 0
2 -11 -34 0
5 11 35 0
5 -11 -35 0
1 11 36 0
1 -11 -36 0
8 11 37 0
8 -11 -37 0
8 11 38 0
8 -11 -38 0
3 11 39 0
3 -11 -39 0
2 11 40 0
2 -11 -40 0
9 11 41 0
9 -11 -41 0
8 11 42 0
8 -11 -42 0
1 12 13 0
1 -12 -13 0
5 12 14 0
5 -12 -14 0
10 12 15 0
10 -12 -15 0
8 12 16 0
8 -12 -16 0
3 12 17 0
3 -12 -17 0
5 12 18 0
5 -12 -18 0
9 12 19 0
9 -12 -19 0
1 12 20 0
1 -12 -20 0
1 12 21 0
1 -12 -21 0
4 12 22 0
4 -12 -22 0
4 12 23 0
4 -12 -23 0
7 12 24 0
7 -12 -24 0
9 12 25 0
9 -12 -25 0
2 12 26 0
2 -12 -26 0
1 12 27 0
1 -12 -27 0
1 12 28 0
1 -12 -28 0
5 12 29 0
5 -12 -29 0
8 12 30 0
8 -12 -30 0
7 12 31 0
7 -12 -31 0
5 12 32 0
5 -12 -32 0
2 12 33 0
2 -12 -33 0
6 12 34 0
6 -12 -34 0
6 12 35 0
6 -12 -35 0
6 12 36 0
6 -12 -36 0
6 12 37 0
6 -12 -37 0
4 12 38 0
4 -12 -38 0
4 12 39 0
4 -12 -39 0
9 12 40 0
9 -12 -40 0
5 12 41 0
5 -12 -41 0
2 12 42 0
2 -12 -42 0
7 13 14 0
7 -13 -14 0
6 13 15 0
6 -13 -15 0
7 13 16 0
7 -13 -16 0
6 13 17 0
6 -13 -17 0
3 13 18 0
3 -13 -18 0
9 13 19 0
9 -13 -19 0
1 13 20 0
1 -13 -20 0
1 13 21 0
1 -13 -21 0
10 13 22 0
10 -13 -22 0
2 13 23 0
2 -13 -23 0
5 13 24 0
5 -13 -24 0
3 13 25 0
3 -13 -25 0
9 13 26 0
9 -13 -26 0
3 13 27 0
3 -13 -27 0
4 13 28 0
4 -13 -28 0
9 13 29 0
9 -13 -29 0
4 13 30 0
4 -13 -30 0
9 13 31 0
9 -13 -31 0
7 13 32 0
7 -13 -32 0
1 13 33 0
1 -13 -33 0
3 13 34 0
3 -13 -34 0
8 13 35 0
8 -13 -35 0
7 13 36 0
7 -13 -36 0
9 13 37 0
9 -13 -37 0
4 13 38 0
4 -13 -38 0
3 13 39 0
3 -13 -39 0
2 13 40 0
2 -13 -40 0
7 13 41 0
7 -13 -41 0
2 13 42 0
2 -13 -42 0
7 14 15 0
7 -14 -15 0
8 14 16 0
8 -14 -16 0
8 14 17 0
8 -14 -17 0
3 14 18 0
3 -14 -18 0
5 14 19 0
5 -14 -19 0
4 14 20 0
4 -14 -20 0
5 14 21 0
5 -14 -21 0
3 14 22 0
3 -14 -22 0
4 14 23 0
4 -14 -23 0
6 14 24 0
6 -14 -24 0
2 14 25 0
2 -14 -25 0
6 14 26 0
6 -14 -26 0
1 14 27 0
1 -14 -27 0
4 14 28 0
4 -14 -28 0
4 14 29 0
4 -14 -29 0
4 14 30 0
4 -14 -30 0
8 14 31 0
8 -14 -31 0
3 14 32 0
3 -14 -32 0
7 14 33 0
7 -14 -33 0
6 14 34 0
6 -14 -34 0
10 14 35 0
10 -14 -35 0
7 14 36 0
7 -14 -36 0
9 14 37 0
9 -14 -37 0
7 14 38 0
7 -14 -38 0
4 14 39 0
4 -14 -39 0
7 14 40 0
7 -14 -40 0
1 14 41 0
1 -14 -41 0
6 14 42 0
6 -14 -42 0
9 15 16 0
9 -15 -16 0
7 15 17 0
7 -15 -17 0
7 15 18 0
7 -15 -18 0
6 15 19 0
6 -15 -19 0
5 15 20 0
5 -15 -20 0
4 15 21 0
4 -15 -21 0
8 15 22 0
8 -15 -22 0
9 15 23 0
9 -15 -23 0
7 15 24 0
7 -15 -24 0
2 15 25 0
2 -15 -25 0
1 15 26 0
1 -15 -26 0
1 15 27 0
1 -15 -27 0
7 15 28 0
7 -15 -28 0
2 15 29 0
2 -15 -29 0
7 15 30 0
7 -15 -30 0
8 15 31 0
8 -15 -31 0
6 15 32 0
6 -15 -32 0
1 15 33 0
1 -15 -33 0
1 15 34 0
1 -15 -34 0
4 15 35 0
4 -15 -35 0
3 15 36 0
3 -15 -36 0
7 15 37 0
7 -15 -37 0
9 15 38 0
9 -15 -38 0
2 15 39 0
2 -15 -39 0
4 15 40 0
4 -15 -40 0
7 15 41 0
7 -15 -41 0
9 15 42 0
9 -15 -42 0
7 16 17 0
7 -16 -17 0
4 16 18 0
4 -16 -18 0
9 16 19 0
9 -16 -19 0
2 16 20 0
2 -16 -20 0
2 16 21 0
2 -16 -21 0
6 16 22 0
6 -16 -22 0
9 16 23 0
9 -16 -23 0
7 16 24 0
7 -16 -24 0
10 16 25 0
10 -16 -25 0
2 16 26 0
2 -16 -26 0
4 16 27 0
4 -16 -27 0
8 16 28 0
8 -16 -28 0
9 16 29 0
9 -16 -29 0
6 16 30 0
6 -16 -30 0
8 16 31 0
8 -16 -31 0
10 16 32 0
10 -16 -32 0
3 16 33 0
3 -16 -33 0
10 16 34 0
10 -16 -34 0
6 16 35 0
6 -16 -35 0
10 16 36 0
10 -16 -36 0
5 16 37 0
5 -16 -37 0
6 16 38 0
6 -16 -38 0
10 16 39 0
10 -16 -39 0
8 16 40 0
8 -16 -40 0
9 16 41 0
9 -16 -41 0
6 16 42 0
6 -16 -42 0
7 17 18 0
7 -17 -18 0
10 17 19 0
10 -17 -19 0
10 17 20 0
10 -17 -20 0
4 17 21 0
4 -17 -21 0
9 17 22 0
9 -17 -22 0
6 17 23 0
6 -17 -23 0
7 17 24 0
7 -17 -24 0
8 17 25 0
8 -17 -25 0
8 17 26 0
8 -17 -26 0
8 17 27 0
8 -17 -27 0
3 17 28 0
3 -17 -28 0
7 17 29 0
7 -17 -29 0
5 17 30 0
5 -17 -30 0
2 17 31 0
2 -17 -31 0
8 17 32 0
8 -17 -32 0
9 17 33 0
9 -17 -33 0
9 17 34 0
9 -17 -34 0
7 17 35 0
7 -17 -35 0
5 17 36 0
5 -17 -36 0
7 17 37 0
7 -17 -37 0
6 17 38 0
6 -17 -38 0
7 17 39 0
7 -17 -39 0
6 17 40 0
6 -17 -40 0
2 17 41 0
2 -17 -41 0
6 17 42 0
6 -17 -42 0
1 18 19 0
1 -18 -19 0
8 18 20 0
8 -18 -20 0
6 18 21 0
6 -18 -21 0
9 18 22 0
9 -18 -22 0
6 18 23 0
6 -18 -23 0
2 18 24 0
2 -18 -24 0
5 18 25 0
5 -18 -25 0
6 18 26 0
6 -18 -26 0
1 18 27 0
1 -18 -27 0
9 18 28 0
9 -18 -28 0
4 18 29 0
4 -18 -29 0
7 18 30 0
7 -18 -30 0
5 18 31 0
5 -18 -31 0
2 18 32 0
2 -18 -32 0
5 18 33 0
5 -18 -33 0
3 18 34 0
3 -18 -34 0
5 18 35 0
5 -18 -35 0
1 18 36 0
1 -18 -36 0
8 18 37 0
8 -18 -37 0
6 18 38 0
6 -18 -38 0
9 18 39 0
9 -18 -39 0
6 18 40 0
6 -18 -40 0
5 18 41 0
5 -18 -41 0
5 18 42 0
5 -18 -42 0
10 19 20 0
10 -19 -20 0
1 19 21 0
1 -19 -21 0
1 19 22 0
1 -19 -22 0
7 19 23 0
7 -19 -23 0
6 19 24 0
6 -19 -24 0
3 19 25 0
3 -19 -25 0
3 19 26 0
3 -19 -26 0
7 19 27 0
7 -19 -27 0
10 19 28 0
10 -19 -28 0
8 19 29 0
8 -19 -29 0
5 19 30 0
5 -19 -30 0
5 19 31 0
5 -19 -31 0
9 19 32 0
9 -19 -32 0
10 19 33 0
10 -19 -33 0
10 19 34 0
10 -19 -34 0
9 19 35 0
9 -19 -35 0
8 19 36 0
8 -19 -36 0
4 19 37 0
4 -19 -37 0
6 19 38 0
6 -19 -38 0
3 19 39 0
3 -19 -39 0
5 19 40 0
5 -19 -40 0
10 19 41 0
10 -19 -41 0
5 19 42 0
5 -19 -42 0
9 20 21 0
9 -20 -21 0
10 20 22 0
10 -20 -22 0
2 20 23 0
2 -20 -23 0
5 20 24 0
5 -20 -24 0
8 20 25 0
8 -20 -25 0
8 20 26 0
8 -20 -26 0
10 20 27 0
10 -20 -27 0
3 20 28 0
3 -20 -28 0
8 20 29 0
8 -20 -29 0
10 20 30 0
10 -20 -30 0
4 20 31 0
4 -20 -31 0
5 20 32 0
5 -20 -32 0
6 20 33 0
6 -20 -33 0
6 20 34 0
6 -20 -34 0
7 20 35 0
7 -20 -35 0
2 20 36 0
2 -20 -36 0
5 20 37 0
5 -20 -37 0
4 20 38 0
4 -20 -38 0
7 20 39 0
7 -20 -39 0
10 20 40 0
10 -20 -40 0
3 20 41 0
3 -20 -41 0
7 20 42 0
7 -20 -42 0
9 21 22 0
9 -21 -22 0
2 21 23 0
2 -21 -23 0
4 21 24 0
4 -21 -24 0
2 21 25 0
2 -21 -25 0
7 21 26 0
7 -21 -26 0
6 21 27 0
6 -21 -27 0
7 21 28 0
7 -21 -28 0
6 21 29 0
6 -21 -29 0
1 21 30 0
1 -21 -30 0
6 21 31 0
6 -21 -31 0
6 21 32 0
6 -21 -32 0
3 21 33 0
3 -21 -33 0
1 21 34 0
1 -21 -34 0
4 21 35 0
4 -21 -35 0
1 21 36 0
1 -21 -36 0
10 21 37 0
10 -21 -37 0
7 21 38 0
7 -21 -38 0
8 21 39 0
8 -21 -39 0
9 21 40 0
9 -21 -40 0
10 21 41 0
10 -21 -41 0
2 21 42 0
2 -21 -42 0
5 22 23 0
5 -22 -23 0
5 22 24 0
5 -22 -24 0
8 22 25 0
8 -22 -25 0
7 22 26 0
7 -22 -26 0
10 22 27 0
10 -22 -27 0
2 22 28 0
2 -22 -28 0
3 22 29 0
3 -22 -29 0
9 22 30 0
9 -22 -30 0
4 22 31 0
4 -22 -31 0
9 22 32 0
9 -22 -32 0
8 22 33 0
8 -22 -33 0
5 22 34 0
5 -22 -34 0
3 22 35 0
3 -22 -35 0
10 22 36 0
10 -22 -36 0
2 22 37 0
2 -22 -37 0
9 22 38 0
9 -22 -38 0
7 22 39 0
7 -22 -39 0
8 22 40 0
8 -22 -40 0
10 22 41 0
10 -22 -41 0
2 22 42 0
2 -22 -42 0
3 23 24 0
3 -23 -24 0
2 23 25 0
2 -23 -25 0
3 23 26 0
3 -23 -26 0
7 23 27 0
7 -23 -27 0
2 23 28 0
2 -23 -28 0
2 23 29 0
2 -23 -29 0
3 23 30 0
3 -23 -30 0
10 23 31 0
10 -23 -31 0
1 23 32 0
1 -23 -32 0
2 23 33 0
2 -23 -33 0
2 23 34 0
2 -23 -34 0
5 23 35 0
5 -23 -35 0
7 23 36 0
7 -23 -36 0
10 23 37 0
10 -23 -37 0
2 23 38 0
2 -23 -38 0
7 23 39 0
7 -23 -39 0
1 23 40 0
1 -23 -40 0
4 23 41 0
4 -23 -41 0
5 23 42 0
5 -23 -42 0
5 24 25 0
5 -24 -25 0
3 24 26 0
3 -24 -26 0
3 24 27 0
3 -24 -27 0
10 24 28 0
10 -24 -28 0
6 24 29 0
6 -24 -29 0
2 24 30 0
2 -24 -30 0
1 24 31 0
1 -24 -31 0
5 24 32 0
5 -24 -32 0
9 24 33 0
9 -24 -33 0
8 24 34 0
8 -24 -34 0
4 24 35 0
4 -24 -35 0
10 24 36 0
10 -24 -36 0
1 24 37 0
1 -24 -37 0
6 24 38 0
6 -24 -38 0
3 24 39 0
3 -24 -39 0
7 24 40 0
7 -24 -40 0
7 24 41 0
7 -24 -41 0
4 24 42 0
4 -24 -42 0
9 25 26 0
9 -25 -26 0
7 25 27 0
7 -25 -27 0
4 25 28 0
4 -25 -28 0
1 25 29 0
1 -25 -29 0
8 25 30 0
8 -25 -30 0
9 25 31 0
9 -25 -31 0
7 25 32 0
7 -25 -32 0
7 25 33 0
7 -25 -33 0
10 25 34 0
10 -25 -34 0
4 25 35 0
4 -25 -35 0
8 25 36 0
8 -25 -36 0
3 25 37 0
3 -25 -37 0
9 25 38 0
9 -25 -38 0
2 25 39 0
2 -25 -39 0
6 25 40 0
6 -25 -40 0
1 25 41 0
1 -25 -41 0
2 25 42 0
2 -25 -42 0
2 26 27 0
2 -26 -27 0
3 26 28 0
3 -26 -28 0
2 26 29 0
2 -26 -29 0
6 26 30 0
6 -26 -30 0
1 26 31 0
1 -26 -31 0
9 26 32 0
9 -26 -32 0
10 26 33 0
10 -26 -33 0
1 26 34 0
1 -26 -34 0
10 26 35 0
10 -26 -35 0
5 26 36 0
5 -26 -36 0
3 26 37 0
3 -26 -37 0
6 26 38 0
6 -26 -38 0
2 26 39 0
2 -26 -39 0
6 26 40 0
6 -26 -40 0
5 26 41 0
5 -26 -41 0
9 26 42 0
9 -26 -42 0
10 27 28 0
10 -27 -28 0
6 27 29 0
6 -27 -29 0
6 27 30 0
6 -27 -30 0
8 27 31 0
8 -27 -31 0
3 27 32 0
3 -27 -32 0
3 27 33 0
3 -27 -33 0
7 27 34 0
7 -27 -34 0
6 27 35 0
6 -27 -35 0
1 27 36 0
1 -27 -36 0
10 27 37 0
10 -27 -37 0
4 27 38 0
4 -27 -38 0
3 27 39 0
3 -27 -39 0
6 27 40 0
6 -27 -40 0
5 27 41 0
5 -27 -41 0
4 27 42 0
4 -27 -42 0
7 28 29 0
7 -28 -29 0
7 28 30 0
7 -28 -30 0
5 28 31 0
5 -28 -31 0
3 28 32 0
3 -28 -32 0
8 28 33 0
8 -28 -33 0
4 28 34 0
4 -28 -34 0
3 28 35 0
3 -28 -35 0
8 28 36 0
8 -28 -36 0
3 28 37 0
3 -28 -37 0
7 28 38 0
7 -28 -38 0
1 28 39 0
1 -28 -39 0
9 28 40 0
9 -28 -40 0
9 28 41 0
9 -28 -41 0
7 28 42 0
7 -28 -42 0
4 29 30 0
4 -29 -30 0
7 29 31 0
7 -29 -31 0
6 29 32 0
6 -29 -32 0
9 29 33 0
9 -29 -33 0
3 29 34 0
3 -29 -34 0
3 29 35 0
3 -29 -35 0
1 29 36 0
1 -29 -36 0
6 29 37 0
6 -29 -37 0
9 29 38 0
9 -29 -38 0
7 29 39 0
7 -29 -39 0
6 29 40 0
6 -29 -40 0
9 29 41 0
9 -29 -41 0
10 29 42 0
10 -29 -42 0
8 30 31 0
8 -30 -31 0
4 30 32 0
4 -30 -32 0
4 30 33 0
4 -30 -33 0
1 30 34 0
1 -30 -34 0
1 30 35 0
1 -30 -35 0
1 30 36 0
1 -30 -36 0
5 30 37 0
5 -30 -37 0
3 30 38 0
3 -30 -38 0
8 30 39 0
8 -30 -39 0
9 30 40 0
9 -30 -40 0
6 30 41 0
6 -30 -41 0
5 30 42 0
5 -30 -42 0
1 31 32 0
1 -31 -32 0
2 31 33 0
2 -31 -33 0
5 31 34 0
5 -31 -34 0
10 31 35 0
10 -31 -35 0
1 31 36 0
1 -31 -36 0
1 31 37 0
1 -31 -37 0
3 31 38 0
3 -31 -38 0
8 31 39 0
8 -31 -39 0
7 31 40 0
7 -31 -40 0
1 31 41 0
1 -31 -41 0
10 31 42 0
10 -31 -42 0
9 32 33 0
9 -32 -33 0
2 32 34 0
2 -32 -34 0
5 32 35 0
5 -32 -35 0
8 32 36 0
8 -32 -36 0
8 32 37 0
8 -32 -37 0
1 32 38 0
1 -32 -38 0
6 32 39 0
6 -32 -39 0
8 32 40 0
8 -32 -40 0
8 32 41 0
8 -32 -41 0
10 32 42 0
10 -32 -42 0
1 33 34 0
1 -33 -34 0
8 33 35 0
8 -33 -35 0
10 33 36 0
10 -33 -36 0
2 33 37 0
2 -33 -37 0
3 33 38 0
3 -33 -38 0
3 33 39 0
3 -33 -39 0
9 33 40 0
9 -33 -40 0
1 33 41 0
1 -33 -41 0
8 33 42 0
8 -33 -42 0
3 34 35 0
3 -34 -35 0
2 34 36 0
2 -34 -36 0
10 34 37 0
10 -34 -37 0
8 34 38 0
8 -34 -38 0
1 34 39 0
1 -34 -39 0
10 34 40 0
10 -34 -40 0
9 34 41 0
9 -34 -41 0
4 34 42 0
4 -34 -42 0
7 35 36 0
7 -35 -36 0
5 35 37 0
5 -35 -37 0
5 35 38 0
5 -35 -38 0
7 35 39 0
7 -35 -39 0
4 35 40 0
4 -35 -40 0
7 35 41 0
7 -35 -41 0
2 35 42 0
2 -35 -42 0
1 36 37 0
1 -36 -37 0
4 36 38 0
4 -36 -38 0
2 36 39 0
2 -36 -39 0
7 36 40 0
7 -36 -40 0
2 36 41 0
2 -36 -41 0
9 36 42 0
9 -36 -42 0
6 37 38 0
6 -37 -38 0
3 37 39 0
3 -37 -39 0
7 37 40 0
7 -37 -40 0
6 37 41 0
6 -37 -41 0
4 37 42 0
4 -37 -42 0
10 38 39 0
10 -38 -39 0
8 38 40 0
8 -38 -40 0
2 38 41 0
2 -38 -41 0
1 38 42 0
1 -38 -42 0
6 39 40 0
6 -39 -40 0
4 39 41 0
4 -39 -41 0
3 39 42 0
3 -39 -42 0
5 40 41 0
5 -40 -41 0
2 40 42 0
2 -40 -42 0
4 41 42 0
4 -41 -42 0
